results/mps/FMS_01_makespan_heurFalse.mps
NAME JobShopModel
ROWS
 N  OBJ
 G  c0      
 E  c1      
 E  c2      
 E  c3      
 E  c4      
 L  c5      
 L  c6      
 L  c7      
 L  c8      
 L  c9      
 L  c10     
 L  c11     
 L  c12     
 G  c13     
 G  c14     
 G  c15     
 G  c16     
 G  c17     
 G  c18     
 G  c19     
 G  c20     
 G  c21     
 G  c22     
 G  c23     
 G  c24     
 G  c25     
 G  c26     
 G  c27     
 G  c28     
 G  c29     
 G  c30     
 G  c31     
 G  c32     
 G  c33     
 G  c34     
 G  c35     
 G  c36     
 G  c37     
 G  c38     
 G  c39     
 G  c40     
 G  c41     
 G  c42     
 G  c43     
 G  c44     
 G  c45     
 G  c46     
 G  c47     
 G  c48     
 G  c49     
 G  c50     
 G  c51     
 G  c52     
 G  c53     
 G  c54     
 G  c55     
 G  c56     
 G  c57     
 G  c58     
COLUMNS
    MARKER    'MARKER'                 'INTORG'
    y[0,0,0]  c0        -32
    y[0,0,0]  c1        1
    y[0,0,0]  c5        -10000000
    y[0,0,0]  c15       -10000000
    y[0,0,0]  c16       -10000000
    y[0,0,0]  c19       -10000000
    y[0,0,0]  c20       -10000000
    y[0,0,0]  c23       -10000000
    y[0,0,0]  c24       -10000000
    y[0,0,0]  c27       -10000000
    y[0,0,0]  c28       -10000000
    y[0,0,1]  c0        -24
    y[0,0,1]  c1        1
    y[0,0,1]  c6        -10000000
    y[0,0,1]  c17       -10000000
    y[0,0,1]  c18       -10000000
    y[0,0,1]  c21       -10000000
    y[0,0,1]  c22       -10000000
    y[0,0,1]  c25       -10000000
    y[0,0,1]  c26       -10000000
    y[0,0,1]  c29       -10000000
    y[0,0,1]  c30       -10000000
    y[0,1,0]  c2        1
    y[0,1,0]  c7        -10000000
    y[0,1,0]  c13       -25
    y[0,1,0]  c15       -10000000
    y[0,1,0]  c16       -10000000
    y[0,1,0]  c27       -10000000
    y[0,1,0]  c28       -10000000
    y[0,1,0]  c31       -10000000
    y[0,1,0]  c32       -10000000
    y[0,1,0]  c35       -10000000
    y[0,1,0]  c36       -10000000
    y[0,1,0]  c49       -480
    y[0,1,1]  c2        1
    y[0,1,1]  c8        -10000000
    y[0,1,1]  c13       -37
    y[0,1,1]  c17       -10000000
    y[0,1,1]  c18       -10000000
    y[0,1,1]  c29       -10000000
    y[0,1,1]  c30       -10000000
    y[0,1,1]  c33       -10000000
    y[0,1,1]  c34       -10000000
    y[0,1,1]  c37       -10000000
    y[0,1,1]  c38       -10000000
    y[0,1,1]  c51       -480
    y[1,0,0]  c0        -21
    y[1,0,0]  c3        1
    y[1,0,0]  c9        -10000000
    y[1,0,0]  c19       -10000000
    y[1,0,0]  c20       -10000000
    y[1,0,0]  c31       -10000000
    y[1,0,0]  c32       -10000000
    y[1,0,0]  c39       -10000000
    y[1,0,0]  c40       -10000000
    y[1,0,0]  c43       -10000000
    y[1,0,0]  c44       -10000000
    y[1,0,1]  c0        -65
    y[1,0,1]  c3        1
    y[1,0,1]  c10       -10000000
    y[1,0,1]  c21       -10000000
    y[1,0,1]  c22       -10000000
    y[1,0,1]  c33       -10000000
    y[1,0,1]  c34       -10000000
    y[1,0,1]  c41       -10000000
    y[1,0,1]  c42       -10000000
    y[1,0,1]  c45       -10000000
    y[1,0,1]  c46       -10000000
    y[1,1,0]  c4        1
    y[1,1,0]  c11       -10000000
    y[1,1,0]  c14       -45
    y[1,1,0]  c23       -10000000
    y[1,1,0]  c24       -10000000
    y[1,1,0]  c35       -10000000
    y[1,1,0]  c36       -10000000
    y[1,1,0]  c39       -10000000
    y[1,1,0]  c40       -10000000
    y[1,1,0]  c43       -10000000
    y[1,1,0]  c44       -10000000
    y[1,1,0]  c55       -480
    y[1,1,1]  c4        1
    y[1,1,1]  c12       -10000000
    y[1,1,1]  c14       -65
    y[1,1,1]  c25       -10000000
    y[1,1,1]  c26       -10000000
    y[1,1,1]  c37       -10000000
    y[1,1,1]  c38       -10000000
    y[1,1,1]  c41       -10000000
    y[1,1,1]  c42       -10000000
    y[1,1,1]  c45       -10000000
    y[1,1,1]  c46       -10000000
    y[1,1,1]  c57       -480
    x[0,0,0,0]  OBJ       0
    x[0,0,0,1]  c15       10000000
    x[0,0,0,1]  c16       -10000000
    x[0,0,0,1]  c17       10000000
    x[0,0,0,1]  c18       -10000000
    x[0,0,1,0]  c19       10000000
    x[0,0,1,0]  c20       -10000000
    x[0,0,1,0]  c21       10000000
    x[0,0,1,0]  c22       -10000000
    x[0,0,1,1]  c23       10000000
    x[0,0,1,1]  c24       -10000000
    x[0,0,1,1]  c25       10000000
    x[0,0,1,1]  c26       -10000000
    x[0,1,0,0]  c27       10000000
    x[0,1,0,0]  c28       -10000000
    x[0,1,0,0]  c29       10000000
    x[0,1,0,0]  c30       -10000000
    x[0,1,0,1]  OBJ       0
    x[0,1,1,0]  c31       10000000
    x[0,1,1,0]  c32       -10000000
    x[0,1,1,0]  c33       10000000
    x[0,1,1,0]  c34       -10000000
    x[0,1,1,1]  c35       10000000
    x[0,1,1,1]  c36       -10000000
    x[0,1,1,1]  c37       10000000
    x[0,1,1,1]  c38       -10000000
    x[1,0,0,0]  OBJ       0
    x[1,0,0,1]  OBJ       0
    x[1,0,1,0]  OBJ       0
    x[1,0,1,1]  c39       10000000
    x[1,0,1,1]  c40       -10000000
    x[1,0,1,1]  c41       10000000
    x[1,0,1,1]  c42       -10000000
    x[1,1,0,0]  OBJ       0
    x[1,1,0,1]  OBJ       0
    x[1,1,1,0]  c43       10000000
    x[1,1,1,0]  c44       -10000000
    x[1,1,1,0]  c45       10000000
    x[1,1,1,0]  c46       -10000000
    x[1,1,1,1]  OBJ       0
    s[0,0,0]  c0        -1
    s[0,0,0]  c5        1
    s[0,0,0]  c13       1
    s[0,0,0]  c15       -1
    s[0,0,0]  c16       1
    s[0,0,0]  c19       -1
    s[0,0,0]  c20       1
    s[0,0,0]  c23       -1
    s[0,0,0]  c24       1
    s[0,0,0]  c27       1
    s[0,0,0]  c28       -1
    s[0,0,0]  c47       1
    s[0,0,1]  c0        -1
    s[0,0,1]  c6        1
    s[0,0,1]  c13       1
    s[0,0,1]  c17       -1
    s[0,0,1]  c18       1
    s[0,0,1]  c21       -1
    s[0,0,1]  c22       1
    s[0,0,1]  c25       -1
    s[0,0,1]  c26       1
    s[0,0,1]  c29       1
    s[0,0,1]  c30       -1
    s[0,0,1]  c48       1
    s[0,1,0]  c7        1
    s[0,1,0]  c13       -1
    s[0,1,0]  c15       1
    s[0,1,0]  c16       -1
    s[0,1,0]  c27       -1
    s[0,1,0]  c28       1
    s[0,1,0]  c31       -1
    s[0,1,0]  c32       1
    s[0,1,0]  c35       -1
    s[0,1,0]  c36       1
    s[0,1,0]  c49       1
    s[0,1,0]  c50       1
    s[0,1,1]  c8        1
    s[0,1,1]  c13       -1
    s[0,1,1]  c17       1
    s[0,1,1]  c18       -1
    s[0,1,1]  c29       -1
    s[0,1,1]  c30       1
    s[0,1,1]  c33       -1
    s[0,1,1]  c34       1
    s[0,1,1]  c37       -1
    s[0,1,1]  c38       1
    s[0,1,1]  c51       1
    s[0,1,1]  c52       1
    s[1,0,0]  c0        -1
    s[1,0,0]  c9        1
    s[1,0,0]  c14       1
    s[1,0,0]  c19       1
    s[1,0,0]  c20       -1
    s[1,0,0]  c31       1
    s[1,0,0]  c32       -1
    s[1,0,0]  c39       -1
    s[1,0,0]  c40       1
    s[1,0,0]  c43       1
    s[1,0,0]  c44       -1
    s[1,0,0]  c53       1
    s[1,0,1]  c0        -1
    s[1,0,1]  c10       1
    s[1,0,1]  c14       1
    s[1,0,1]  c21       1
    s[1,0,1]  c22       -1
    s[1,0,1]  c33       1
    s[1,0,1]  c34       -1
    s[1,0,1]  c41       -1
    s[1,0,1]  c42       1
    s[1,0,1]  c45       1
    s[1,0,1]  c46       -1
    s[1,0,1]  c54       1
    s[1,1,0]  c11       1
    s[1,1,0]  c14       -1
    s[1,1,0]  c23       1
    s[1,1,0]  c24       -1
    s[1,1,0]  c35       1
    s[1,1,0]  c36       -1
    s[1,1,0]  c39       1
    s[1,1,0]  c40       -1
    s[1,1,0]  c43       -1
    s[1,1,0]  c44       1
    s[1,1,0]  c55       1
    s[1,1,0]  c56       1
    s[1,1,1]  c12       1
    s[1,1,1]  c14       -1
    s[1,1,1]  c25       1
    s[1,1,1]  c26       -1
    s[1,1,1]  c37       1
    s[1,1,1]  c38       -1
    s[1,1,1]  c41       1
    s[1,1,1]  c42       -1
    s[1,1,1]  c45       -1
    s[1,1,1]  c46       1
    s[1,1,1]  c57       1
    s[1,1,1]  c58       1
    Z_FO      OBJ       1
    Z_FO      c0        1
    MARKER    'MARKER'                 'INTEND'
RHS
    RHS1      c1        1
    RHS1      c2        1
    RHS1      c3        1
    RHS1      c4        1
    RHS1      c15       -19999708
    RHS1      c16       -29999915
    RHS1      c17       -19999816
    RHS1      c18       -29999798
    RHS1      c19       -19999796
    RHS1      c20       -29999799
    RHS1      c21       -19999806
    RHS1      c22       -29999823
    RHS1      c23       -19999823
    RHS1      c24       -29999787
    RHS1      c25       -19999889
    RHS1      c26       -29999853
    RHS1      c27       -19999915
    RHS1      c28       -29999708
    RHS1      c29       -19999798
    RHS1      c30       -29999816
    RHS1      c31       -19999911
    RHS1      c32       -29999783
    RHS1      c33       -19999810
    RHS1      c34       -29999750
    RHS1      c35       -19999840
    RHS1      c36       -29999922
    RHS1      c37       -19999819
    RHS1      c38       -29999760
    RHS1      c39       -19999727
    RHS1      c40       -29999895
    RHS1      c41       -19999875
    RHS1      c42       -29999690
    RHS1      c43       -19999895
    RHS1      c44       -29999727
    RHS1      c45       -19999690
    RHS1      c46       -29999875
BOUNDS
 BV BND1      y[0,0,0]
 BV BND1      y[0,0,1]
 BV BND1      y[0,1,0]
 BV BND1      y[0,1,1]
 BV BND1      y[1,0,0]
 BV BND1      y[1,0,1]
 BV BND1      y[1,1,0]
 BV BND1      y[1,1,1]
 BV BND1      x[0,0,0,0]
 BV BND1      x[0,0,0,1]
 BV BND1      x[0,0,1,0]
 BV BND1      x[0,0,1,1]
 BV BND1      x[0,1,0,0]
 BV BND1      x[0,1,0,1]
 BV BND1      x[0,1,1,0]
 BV BND1      x[0,1,1,1]
 BV BND1      x[1,0,0,0]
 BV BND1      x[1,0,0,1]
 BV BND1      x[1,0,1,0]
 BV BND1      x[1,0,1,1]
 BV BND1      x[1,1,0,0]
 BV BND1      x[1,1,0,1]
 BV BND1      x[1,1,1,0]
 BV BND1      x[1,1,1,1]
 LI BND1      s[0,0,0]  0
 LI BND1      s[0,0,1]  0
 LI BND1      s[0,1,0]  0
 LI BND1      s[0,1,1]  0
 LI BND1      s[1,0,0]  0
 LI BND1      s[1,0,1]  0
 LI BND1      s[1,1,0]  0
 LI BND1      s[1,1,1]  0
 LI BND1      Z_FO      0
ENDATA
