results/log/FMS_01_makespan_heurFalse.log

Gurobi 10.0.1 (win64) logging started Sun Oct  8 04:17:19 2023

Set parameter LogFile to value "./results//log/FMS_01_makespan_heurFalse.log"
Gurobi Optimizer version 10.0.1 build v10.0.1rc0 (win64)

CPU model: AMD Ryzen 7 3700X 8-Core Processor, instruction set [SSE2|AVX|AVX2]
Thread count: 8 physical cores, 16 logical processors, using up to 16 threads

Optimize a model with 59 rows, 33 columns and 221 nonzeros
Model fingerprint: 0x2e4637e0
Variable types: 0 continuous, 33 integer (24 binary)
Coefficient statistics:
  Matrix range     [1e+00, 1e+07]
  Objective range  [1e+00, 1e+00]
  Bounds range     [1e+00, 1e+00]
  RHS range        [1e+00, 3e+07]
Found heuristic solution: objective 1296.0000000
Presolve removed 13 rows and 13 columns
Presolve time: 0.01s
Presolved: 46 rows, 20 columns, 194 nonzeros
Variable types: 0 continuous, 20 integer (12 binary)

Root relaxation: objective 1.075000e+03, 11 iterations, 0.00 seconds (0.00 work units)

    Nodes    |    Current Node    |     Objective Bounds      |     Work
 Expl Unexpl |  Obj  Depth IntInf | Incumbent    BestBd   Gap | It/Node Time

     0     0 1075.00000    0    2 1296.00000 1075.00000  17.1%     -    0s
H    0     0                    1275.0000000 1075.00000  15.7%     -    0s
H    0     0                    1231.0000000 1075.00000  12.7%     -    0s
     0     0 1075.00140    0    2 1231.00000 1075.00140  12.7%     -    0s
     0     0 1087.00026    0    4 1231.00000 1087.00026  11.7%     -    0s
     0     0 1095.00011    0   11 1231.00000 1095.00011  11.0%     -    0s
     0     0 1107.00000    0   12 1231.00000 1107.00000  10.1%     -    0s

Cutting planes:
  Learned: 2
  Gomory: 2
  Cover: 2
  MIR: 3

Explored 1 nodes (26 simplex iterations) in 0.13 seconds (0.00 work units)
Thread count was 16 (of 16 available processors)

Solution count 3: 1231 1275 1296 

Optimal solution found (tolerance 1.00e-04)
Best objective 1.231000000000e+03, best bound 1.231000000000e+03, gap 0.0000%
Warning: constraint name "precedence between 0,0 to 0,1 if x_[0,0,0,1,0]=0, i.e. 0,1 before 0,0" has a space
Warning: constraint name "precedence between 0,0 to 0,1 if x_[0,0,0,1,0]=0, i.e. 0,1 before 0,0" has a space
Warning: default constraint names used to write mps file
